c width = 3, time = 0.042629
s td 84 4 87
b 1 28 33 78
b 2 33 59 70
b 3 33 70 72
b 4 33 72 78
b 5 59 63 66 70
b 6 33 28 29
b 7 33 29 30
b 8 33 30 31
b 9 33 31 32
b 10 59 33 48
b 11 59 48 49
b 12 59 49 50
b 13 59 50 51
b 14 59 51 52
b 15 59 52 53
b 16 59 53 54
b 17 59 54 55
b 18 59 55 56
b 19 59 56 58
b 20 59 66 67
b 21 59 67 69
b 22 63 59 60
b 23 63 60 61
b 24 63 61 62
b 25 66 63 64
b 26 66 64 65
b 27 72 70 71
b 28 78 33 34
b 29 78 34 36
b 30 78 36 37
b 31 78 37 38
b 32 78 38 39
b 33 78 39 40
b 34 78 40 41
b 35 78 41 42
b 36 78 42 43
b 37 78 43 44
b 38 78 44 45
b 39 78 45 47
b 40 78 72 73
b 41 78 73 74
b 42 78 74 75
b 43 78 75 76
b 44 78 76 77
b 45 78 28 27
b 46 78 27 26
b 47 78 26 25
b 48 78 25 23
b 49 78 23 22
b 50 78 22 21
b 51 78 21 20
b 52 78 20 19
b 53 78 19 18
b 54 78 18 17
b 55 78 17 16
b 56 78 16 15
b 57 78 15 14
b 58 78 14 12
b 59 78 12 11
b 60 78 11 10
b 61 78 10 9
b 62 78 9 8
b 63 78 8 7
b 64 78 7 6
b 65 78 6 5
b 66 78 5 4
b 67 78 4 3
b 68 78 3 84
b 69 78 84 83
b 70 78 83 82
b 71 78 82 81
b 72 78 81 80
b 73 7 85
b 74 85 86
b 75 3 87
b 76 87 79
b 77 79 68
b 78 68 57
b 79 57 46
b 80 46 35
b 81 35 24
b 82 24 13
b 83 13 2
b 84 2 1
3 2
4 3
1 4
2 5
1 6
6 7
7 8
8 9
2 10
10 11
11 12
12 13
13 14
14 15
15 16
16 17
17 18
18 19
5 20
20 21
5 22
22 23
23 24
5 25
25 26
3 27
1 28
28 29
29 30
30 31
31 32
32 33
33 34
34 35
35 36
36 37
37 38
38 39
4 40
40 41
41 42
42 43
43 44
1 45
45 46
46 47
47 48
48 49
49 50
50 51
51 52
52 53
53 54
54 55
55 56
56 57
57 58
58 59
59 60
60 61
61 62
62 63
63 64
64 65
65 66
66 67
67 68
68 69
69 70
70 71
71 72
63 73
73 74
67 75
75 76
76 77
77 78
78 79
79 80
80 81
81 82
82 83
83 84
